6687
27567
18832
12181
30567
16388
28096
3776
26271
29647
11406
18273
23223
20044
4732
9570
30163
10501
4427
24879
4375
32692
3628
11013
29071
3883
32735
4792
5272
6071
3981
6422
866
16021
23012
2591
31951
4922
22841
22597
15766
23633
30817
10877
9657
8729
5982
10596
5961
23415
31057
27283
2042
21437
9408
22576
29728
4772
1908
854
8459
1610
1190
22287
9848
19526
8109
20629
6253
20446
11698
13634
4890
13975
4119
2811
7865
7261
21766
7181
7055
22109
2301
7289
22406
11739
12630
12136
4757
31887
19616
20447
30928
16844
23039
12757
20037
9911
25771
17520
